c v 7
c e 0 1 158
c e 0 2 139
c e 0 3 121
c e 0 4 107
c e 0 5 97
c e 0 6 83
c e 1 2 71
c e 1 3 60
c e 1 4 51
c e 1 5 41
c e 1 6 33
c e 2 3 27
c e 2 4 22
c e 2 5 16
c e 2 6 12
c e 3 4 8
c e 3 5 1
c e 3 6 6
c e 4 5 4
c e 4 6 2
c e 5 6 9
p cnf 176 449
1 2 3 0
-1 -2 3 0
1 4 5 0
-1 -4 5 0
1 6 7 0
-1 -6 7 0
8 9 10 0
-8 -9 10 0
8 1 11 0
-8 -1 11 0
12 2 13 0
-12 -2 13 0
12 6 14 0
-12 -6 14 0
12 1 15 0
-12 -1 15 0
16 4 17 0
-16 -4 17 0
16 6 18 0
-16 -6 18 0
16 1 19 0
-16 -1 19 0
16 8 20 0
-16 -8 20 0
16 12 21 0
-16 -12 21 0
22 1 23 0
-22 -1 23 0
22 8 24 0
-22 -8 24 0
22 12 25 0
-22 -12 25 0
22 16 26 0
-22 -16 26 0
27 4 28 0
-27 -4 28 0
27 1 29 0
-27 -1 29 0
27 12 30 0
-27 -12 30 0
27 16 31 0
-27 -16 31 0
27 22 32 0
-27 -22 32 0
33 2 34 0
-33 -2 34 0
33 6 35 0
-33 -6 35 0
33 1 36 0
-33 -1 36 0
33 12 37 0
-33 -12 37 0
33 16 38 0
-33 -16 38 0
33 22 39 0
-33 -22 39 0
33 27 40 0
-33 -27 40 0
41 4 42 0
-41 -4 42 0
41 6 43 0
-41 -6 43 0
41 1 44 0
-41 -1 44 0
41 8 45 0
-41 -8 45 0
41 12 46 0
-41 -12 46 0
41 16 47 0
-41 -16 47 0
41 22 48 0
-41 -22 48 0
41 27 49 0
-41 -27 49 0
41 33 50 0
-41 -33 50 0
51 6 52 0
-51 -6 52 0
51 1 53 0
-51 -1 53 0
51 12 54 0
-51 -12 54 0
51 16 55 0
-51 -16 55 0
51 22 56 0
-51 -22 56 0
51 27 57 0
-51 -27 57 0
51 33 58 0
-51 -33 58 0
51 41 59 0
-51 -41 59 0
60 9 61 0
-60 -9 61 0
60 4 62 0
-60 -4 62 0
60 8 63 0
-60 -8 63 0
60 12 64 0
-60 -12 64 0
60 16 65 0
-60 -16 65 0
60 22 66 0
-60 -22 66 0
60 27 67 0
-60 -27 67 0
60 33 68 0
-60 -33 68 0
60 41 69 0
-60 -41 69 0
60 51 70 0
-60 -51 70 0
71 2 72 0
-71 -2 72 0
71 4 73 0
-71 -4 73 0
71 6 74 0
-71 -6 74 0
71 1 75 0
-71 -1 75 0
71 8 76 0
-71 -8 76 0
71 12 77 0
-71 -12 77 0
71 22 78 0
-71 -22 78 0
71 27 79 0
-71 -27 79 0
71 41 80 0
-71 -41 80 0
71 51 81 0
-71 -51 81 0
71 60 82 0
-71 -60 82 0
83 2 84 0
-83 -2 84 0
83 4 85 0
-83 -4 85 0
83 6 86 0
-83 -6 86 0
83 1 87 0
-83 -1 87 0
83 8 88 0
-83 -8 88 0
83 16 89 0
-83 -16 89 0
83 22 90 0
-83 -22 90 0
83 27 91 0
-83 -27 91 0
83 33 92 0
-83 -33 92 0
83 41 93 0
-83 -41 93 0
83 51 94 0
-83 -51 94 0
83 60 95 0
-83 -60 95 0
83 71 96 0
-83 -71 96 0
97 2 98 0
-97 -2 98 0
97 22 99 0
-97 -22 99 0
97 27 100 0
-97 -27 100 0
97 33 101 0
-97 -33 101 0
97 41 102 0
-97 -41 102 0
97 51 103 0
-97 -51 103 0
97 60 104 0
-97 -60 104 0
97 71 105 0
-97 -71 105 0
97 83 106 0
-97 -83 106 0
107 4 108 0
-107 -4 108 0
107 1 109 0
-107 -1 109 0
107 12 110 0
-107 -12 110 0
107 16 111 0
-107 -16 111 0
107 22 112 0
-107 -22 112 0
107 27 113 0
-107 -27 113 0
107 33 114 0
-107 -33 114 0
107 41 115 0
-107 -41 115 0
107 51 116 0
-107 -51 116 0
107 60 117 0
-107 -60 117 0
107 71 118 0
-107 -71 118 0
107 83 119 0
-107 -83 119 0
107 97 120 0
-107 -97 120 0
121 9 122 0
-121 -9 122 0
121 2 123 0
-121 -2 123 0
121 4 124 0
-121 -4 124 0
121 6 125 0
-121 -6 125 0
121 1 126 0
-121 -1 126 0
121 8 127 0
-121 -8 127 0
121 12 128 0
-121 -12 128 0
121 16 129 0
-121 -16 129 0
121 22 130 0
-121 -22 130 0
121 33 131 0
-121 -33 131 0
121 41 132 0
-121 -41 132 0
121 51 133 0
-121 -51 133 0
121 60 134 0
-121 -60 134 0
121 71 135 0
-121 -71 135 0
121 83 136 0
-121 -83 136 0
121 97 137 0
-121 -97 137 0
121 107 138 0
-121 -107 138 0
139 9 140 0
-139 -9 140 0
139 2 141 0
-139 -2 141 0
139 4 142 0
-139 -4 142 0
139 6 143 0
-139 -6 143 0
139 1 144 0
-139 -1 144 0
139 8 145 0
-139 -8 145 0
139 12 146 0
-139 -12 146 0
139 16 147 0
-139 -16 147 0
139 22 148 0
-139 -22 148 0
139 27 149 0
-139 -27 149 0
139 41 150 0
-139 -41 150 0
139 51 151 0
-139 -51 151 0
139 60 152 0
-139 -60 152 0
139 71 153 0
-139 -71 153 0
139 83 154 0
-139 -83 154 0
139 97 155 0
-139 -97 155 0
139 107 156 0
-139 -107 156 0
139 121 157 0
-139 -121 157 0
158 9 159 0
-158 -9 159 0
158 4 160 0
-158 -4 160 0
158 1 161 0
-158 -1 161 0
158 8 162 0
-158 -8 162 0
158 12 163 0
-158 -12 163 0
158 16 164 0
-158 -16 164 0
158 22 165 0
-158 -22 165 0
158 27 166 0
-158 -27 166 0
158 33 167 0
-158 -33 167 0
158 41 168 0
-158 -41 168 0
158 51 169 0
-158 -51 169 0
158 60 170 0
-158 -60 170 0
158 71 171 0
-158 -71 171 0
158 83 172 0
-158 -83 172 0
158 97 173 0
-158 -97 173 0
158 107 174 0
-158 -107 174 0
158 121 175 0
-158 -121 175 0
158 139 176 0
-158 -139 176 0
-2 9 -35 -37 -45 -48 -53 -55 -82 -92 -102 -116 -135 -157 -166 0
60 -22 -29 -38 -48 -57 -64 -93 -104 -114 -118 -138 -151 -176 0
139 -22 -35 -44 -57 -63 -92 -102 -116 -118 -138 -152 -176 0
-16 12 -36 -43 -70 -78 -79 -85 -98 -117 -138 -153 -162 0
121 -16 -28 -34 -45 -56 -67 -92 -104 -118 -132 -151 -176 0
-16 9 -35 -40 -50 -75 -84 -90 -106 -133 -142 -162 0
-8 1 -37 -49 -55 -66 -92 -104 -115 -133 -153 -176 0
-1 9 -21 -31 -50 -69 -84 -88 -106 -124 -148 -169 0
-8 9 -39 -40 -50 -54 -55 -70 -119 -120 -138 -176 0
139 -33 -44 -57 -74 -94 -104 -118 -132 -145 -175 0
-8 6 -25 -32 -58 -70 -85 -109 -122 -147 -168 0
-41 22 -63 -72 -89 -106 -115 -126 -140 -160 0
-6 4 -10 -39 -49 -54 -65 -119 -137 -176 0
-6 4 -10 -25 -31 -94 -104 -114 -132 -153 0
-6 4 -3 -38 -46 -57 -66 -106 -138 -176 0
-6 9 -13 -20 -28 -92 -104 -118 -132 -151 0
-4 2 -15 -18 -24 -93 -101 -116 -135 -152 0
-2 9 -14 -20 -23 -92 -103 -115 -135 -152 0
-60 4 -74 -91 -104 -118 -126 -157 -162 0
-51 16 -62 -75 -101 -110 -123 -143 -159 0
139 -60 -78 -95 -102 -114 -135 -151 -175 0
-51 2 -73 -86 -95 -100 -119 -144 -162 0
-16 2 -36 -43 -57 -76 -106 -156 -175 0
-12 6 -20 -23 -92 -103 -115 -135 -152 0
-12 2 -20 -28 -92 -104 -118 -132 -151 0
-12 2 -17 -35 -44 -57 -76 -156 -175 0
-8 9 -26 -30 -95 -103 -115 -131 -153 0
-1 2 -38 -46 -57 -66 -106 -138 -176 0
-6 9 -13 -20 -28 -69 -81 -137 -156 0
-6 9 -31 -34 -45 -62 -78 -137 -174 0
-6 2 -5 -32 -92 -102 -117 -133 -153 0
-6 2 -5 -37 -47 -57 -66 -138 -176 0
-4 2 -15 -18 -24 -50 -82 -106 -157 0
-4 2 -7 -38 -46 -56 -67 -106 -176 0
-4 2 -7 -21 -93 -101 -116 -134 -153 0
-2 9 -11 -37 -48 -55 -67 -120 -176 0
-2 9 -14 -20 -23 -59 -82 -120 -157 0
-2 9 -11 -26 -92 -103 -115 -134 -153 0
-27 2 -36 -55 -61 -73 -136 -156 -173 0
-8 2 -30 -68 -87 -108 -122 -147 -168 0
-71 4 -95 -105 -114 -133 -150 -175 0
-60 16 -95 -103 -114 -132 -153 -176 0
-60 6 -72 -89 -115 -126 -142 -159 0
-41 1 -52 -67 -82 -119 -157 -176 0
-33 9 -53 -65 -73 -138 -157 -173 0
-33 6 -45 -57 -75 -120 -156 -175 0
-33 12 -49 -55 -66 -120 -138 -176 0
-60 33 -77 -85 -109 -132 -147 -159 0
-60 2 -89 -96 -106 -113 -130 -163 0
-22 16 -35 -45 -53 -79 -120 -175 0
-16 1 -34 -42 -66 -76 -157 -174 0
-12 2 -20 -28 -69 -81 -137 -156 0
-12 6 -20 -23 -59 -82 -120 -157 0
-8 1 -26 -92 -103 -115 -134 -153 0
-1 6 -21 -93 -101 -116 -134 -153 0
-1 4 -32 -92 -102 -117 -133 -153 0
-1 6 -38 -46 -56 -67 -106 -176 0
-1 4 -37 -47 -57 -66 -138 -176 0
-33 6 -49 -53 -76 -120 -156 -175 0
-83 60 -105 -114 -133 -150 -175 0
-41 16 -56 -67 -82 -157 -176 0
-33 2 -42 -66 -76 -157 -174 0
-71 9 -88 -99 -133 -141 -160 0
-71 12 -85 -109 -132 -140 -164 0
-71 1 -90 -103 -123 -142 -162 0
-33 12 -48 -55 -67 -120 -176 0
-51 27 -64 -106 -120 -138 -176 0
-22 16 -92 -103 -115 -134 -153 0
-16 12 -93 -101 -116 -134 -153 0
139 -97 -112 -128 -147 -171 0
-97 2 -114 -125 -146 -159 0
-97 9 -111 -124 -150 -161 0
158 -97 -118 -132 -152 -169 0
-97 16 -113 -128 -157 -171 0
-97 60 -109 -125 -157 -166 0
-41 4 -66 -76 -157 -174 0
-41 1 -57 -76 -156 -175 0
-41 16 -57 -66 -138 -176 0
-33 12 -47 -56 -67 -176 0
-27 22 -70 -82 -138 -157 0
-12 6 -19 -24 -82 -157 0
-6 2 -5 -32 -70 -138 0
-4 2 -7 -21 -50 -106 0
-2 9 -11 -26 -59 -120 0
-107 22 -124 -145 -169 0
-107 8 -123 -151 -165 0
-107 8 -123 -142 -165 0
121 -107 -125 -144 -162 0
-107 51 -123 -142 -165 0
-107 22 -129 -157 -171 0
-107 71 -134 -151 -175 0
-107 71 -133 -150 -175 0
158 -107 -131 -150 -169 0
-97 41 -118 -131 -152 0
158 -97 -136 -157 -176 0
-71 27 -106 -157 -176 0
-71 60 -120 -157 -176 0
71 -60 -79 -157 -176 0
71 -51 -80 -120 -156 0
-16 1 -24 -82 -157 0
-8 1 -26 -59 -120 0
-1 6 -21 -50 -106 0
-1 4 -32 -70 -138 0
-97 4 -127 -141 -169 0
-121 71 -152 -176 0
139 -121 -154 -176 0
139 -121 -155 -176 0
139 -121 -156 -176 0
-121 6 -144 -162 0
-121 8 -152 -161 0
139 -107 -137 -157 0
-71 60 -106 -157 0
-51 41 -106 -120 0
-51 22 -67 -176 0
-121 107 -151 -160 0
-107 8 -149 -170 0
158 -121 -150 -167 0
-60 41 -120 -138 0
-71 27 -138 -175 0
-22 16 -59 -120 0
-22 8 -82 -157 0
-16 12 -50 -106 0
-121 2 -143 -163 0
-121 60 -144 -166 0
-121 12 -149 -176 0
158 -139 -172 0
158 -139 -173 0
158 -139 -175 0
158 -139 -171 0
158 -139 -174 0
-60 51 -138 0
-41 33 -106 0
-121 27 -165 0
-139 1 -166 0
-158 139 0
-158 51 0
-158 121 0
-158 83 0
-158 97 0
